
  22   10
  10   10   10   10   10   10   10   10   10   10

   0   0   0   0   0   0   0   0   0   0   0   1 2 
   3  10   0   0   0   0   0   0   0   0   0   2 21 3 
   1   0  10   0   0   0   0   0   0   0   0   1 4 
   6   0   0   0   0   0   0  10   0   0   0   1 5 
   9   0  10   0   0   0   0   0   0   0   0   1 6 
   3   0   0  10   0   0   0   0   0   0   0   1 7 
   4   0   0   0   0   0  10   0   0   0   0   2 14 8 
   7   0  10   0   0   0   0   0   0   0   0   1 9 
  10   0   0   0  10   0   0   0   0   0   0   1 10 
   9   0   0   0   0   0  10   0   0   0   0   1 11 
   2   0   0   0   0   0   0   0   0  10   0   1 12 
   1   0  10   0   0   0   0   0   0   0   0   1 13 
   6   0   0  10   0   0   0   0   0   0   0   1 15 
   5   0   0   0   0   0   0   0  10   0   0   1 15 
   9   0   0  10   0   0   0   0   0   0   0   1 16 
  10   0   0   0   0   0   0  10   0   0   0   1 17 
   7   0   0  10   0   0   0   0   0   0   0   1 18 
   1   0   0  10   0   0   0   0   0   0   0   1 19 
   6   0   0   0   0   0  10   0   0   0   0   1 20 
   3   0   0   0   0   0   0   0   0   0  10   1 22
   4  10   0   0   0   0   0   0   0   0   0   1 22
   0   0   0   0   0   0   0   0   0   0   0   0 
